p cnf 612 452
d 0.875 0.125
d 0.875 0.125
d 0.875 0.125
d 0.875 0.125
d 0.875 0.125
d 0.875 0.125
d 0.875 0.125
d 0.875 0.125
d 0.875 0.125
d 0.875 0.125
d 0.875 0.125
d 0.875 0.125
d 0.875 0.125
d 0.875 0.125
d 0.875 0.125
d 0.875 0.125
d 0.875 0.125
d 0.875 0.125
d 0.875 0.125
d 0.875 0.125
d 0.875 0.125
d 0.875 0.125
d 0.875 0.125
d 0.875 0.125
d 0.875 0.125
d 0.875 0.125
d 0.875 0.125
d 0.875 0.125
d 0.875 0.125
d 0.875 0.125
d 0.875 0.125
d 0.875 0.125
d 0.875 0.125
d 0.875 0.125
d 0.875 0.125
d 0.875 0.125
d 0.875 0.125
d 0.875 0.125
d 0.875 0.125
d 0.875 0.125
d 0.875 0.125
d 0.875 0.125
d 0.875 0.125
d 0.875 0.125
d 0.875 0.125
d 0.875 0.125
d 0.875 0.125
d 0.875 0.125
d 0.875 0.125
d 0.875 0.125
d 0.875 0.125
d 0.875 0.125
d 0.875 0.125
d 0.875 0.125
d 0.875 0.125
d 0.875 0.125
d 0.875 0.125
d 0.875 0.125
d 0.875 0.125
d 0.875 0.125
d 0.875 0.125
d 0.875 0.125
d 0.875 0.125
d 0.875 0.125
d 0.875 0.125
d 0.875 0.125
d 0.875 0.125
d 0.875 0.125
d 0.875 0.125
d 0.875 0.125
d 0.875 0.125
d 0.875 0.125
d 0.875 0.125
d 0.875 0.125
d 0.875 0.125
d 0.875 0.125
d 0.875 0.125
d 0.875 0.125
d 0.875 0.125
d 0.875 0.125
d 0.875 0.125
d 0.875 0.125
d 0.875 0.125
d 0.875 0.125
d 0.875 0.125
d 0.875 0.125
d 0.875 0.125
d 0.875 0.125
d 0.875 0.125
d 0.875 0.125
d 0.875 0.125
d 0.875 0.125
d 0.875 0.125
d 0.875 0.125
d 0.875 0.125
d 0.875 0.125
d 0.875 0.125
d 0.875 0.125
d 0.875 0.125
d 0.875 0.125
d 0.875 0.125
d 0.875 0.125
d 0.875 0.125
d 0.875 0.125
d 0.875 0.125
d 0.875 0.125
d 0.875 0.125
d 0.875 0.125
d 0.875 0.125
d 0.875 0.125
d 0.875 0.125
d 0.875 0.125
d 0.875 0.125
d 0.875 0.125
d 0.875 0.125
d 0.875 0.125
d 0.875 0.125
d 0.875 0.125
d 0.875 0.125
d 0.875 0.125
d 0.875 0.125
d 0.875 0.125
d 0.875 0.125
d 0.875 0.125
d 0.875 0.125
d 0.875 0.125
d 0.875 0.125
d 0.875 0.125
d 0.875 0.125
d 0.875 0.125
d 0.875 0.125
d 0.875 0.125
d 0.875 0.125
d 0.875 0.125
d 0.875 0.125
d 0.875 0.125
d 0.875 0.125
d 0.875 0.125
d 0.875 0.125
d 0.875 0.125
d 0.875 0.125
d 0.875 0.125
d 0.875 0.125
d 0.875 0.125
d 0.875 0.125
d 0.875 0.125
d 0.875 0.125
d 0.875 0.125
d 0.875 0.125
d 0.875 0.125
d 0.875 0.125
d 0.875 0.125
d 0.875 0.125
d 0.875 0.125
d 0.875 0.125
d 0.875 0.125
d 0.875 0.125
d 0.875 0.125
d 0.875 0.125
d 0.875 0.125
d 0.875 0.125
d 0.875 0.125
d 0.875 0.125
d 0.875 0.125
d 0.875 0.125
d 0.875 0.125
d 0.875 0.125
d 0.875 0.125
d 0.875 0.125
d 0.875 0.125
d 0.875 0.125
d 0.875 0.125
d 0.875 0.125
d 0.875 0.125
d 0.875 0.125
d 0.875 0.125
d 0.875 0.125
d 0.875 0.125
d 0.875 0.125
d 0.875 0.125
d 0.875 0.125
d 0.875 0.125
d 0.875 0.125
d 0.875 0.125
d 0.875 0.125
d 0.875 0.125
d 0.875 0.125
d 0.875 0.125
d 0.875 0.125
d 0.875 0.125
d 0.875 0.125
d 0.875 0.125
d 0.875 0.125
d 0.875 0.125
d 0.875 0.125
d 0.875 0.125
d 0.875 0.125
d 0.875 0.125
d 0.875 0.125
d 0.875 0.125
d 0.875 0.125
d 0.875 0.125
d 0.875 0.125
d 0.875 0.125
d 0.875 0.125
d 0.875 0.125
d 0.875 0.125
d 0.875 0.125
d 0.875 0.125
d 0.875 0.125
d 0.875 0.125
d 0.875 0.125
d 0.875 0.125
d 0.875 0.125
d 0.875 0.125
d 0.875 0.125
d 0.875 0.125
d 0.875 0.125
d 0.875 0.125
d 0.875 0.125
d 0.875 0.125
d 0.875 0.125
d 0.875 0.125
d 0.875 0.125
d 0.875 0.125
458
-468
510 -464 -0
464 -510 -0
605 -483 -2
483 -605 -2
600 -511 -4
511 -600 -4
469 -553 -6
553 -469 -6
560 -500 -8
500 -560 -8
499 -564 -10
564 -499 -10
584 -558 -12
558 -584 -12
498 -534 -14
534 -498 -14
587 -527 -16
527 -587 -16
502 -488 -18
488 -502 -18
555 -472 -20
472 -555 -20
476 -534 -22
534 -476 -22
546 -526 -24
526 -546 -24
475 -574 -26
574 -475 -26
535 -485 -28
485 -535 -28
453 -524 -30
524 -453 -30
456 -572 -32
572 -456 -32
490 -608 -34
608 -490 -34
508 -607 -36
607 -508 -36
590 -465 -38
465 -590 -38
474 -450 -40
450 -474 -40
496 -528 -42
528 -496 -42
582 -603 -44
603 -582 -44
588 -599 -46
599 -588 -46
495 -603 -48
603 -495 -48
585 -473 -50
473 -585 -50
552 -458 -52
458 -552 -52
520 -511 -54
511 -520 -54
529 -573 -56
573 -529 -56
451 -537 -58
537 -451 -58
497 -500 -60
500 -497 -60
575 -555 -62
555 -575 -62
503 -462 -64
462 -503 -64
486 -503 -66
503 -486 -66
508 -557 -68
557 -508 -68
495 -590 -70
590 -495 -70
576 -468 -72
468 -576 -72
501 -610 -74
610 -501 -74
453 -550 -76
550 -453 -76
521 -551 -78
551 -521 -78
511 -546 -80
546 -511 -80
485 -544 -82
544 -485 -82
606 -508 -84
508 -606 -84
556 -503 -86
503 -556 -86
502 -596 -88
596 -502 -88
503 -462 -90
462 -503 -90
494 -477 -92
477 -494 -92
576 -468 -94
468 -576 -94
456 -595 -96
595 -456 -96
584 -600 -98
600 -584 -98
478 -516 -100
516 -478 -100
587 -536 -102
536 -587 -102
573 -515 -104
515 -573 -104
484 -542 -106
542 -484 -106
501 -603 -108
603 -501 -108
482 -532 -110
532 -482 -110
602 -583 -112
583 -602 -112
519 -593 -114
593 -519 -114
531 -578 -116
578 -531 -116
571 -493 -118
493 -571 -118
510 -488 -120
488 -510 -120
529 -561 -122
561 -529 -122
568 -610 -124
610 -568 -124
588 -572 -126
572 -588 -126
471 -477 -128
477 -471 -128
608 -453 -130
453 -608 -130
457 -589 -132
589 -457 -132
473 -494 -134
494 -473 -134
575 -541 -136
541 -575 -136
547 -594 -138
594 -547 -138
586 -608 -140
608 -586 -140
469 -571 -142
571 -469 -142
518 -503 -144
503 -518 -144
500 -595 -146
595 -500 -146
454 -498 -148
498 -454 -148
555 -513 -150
513 -555 -150
522 -564 -152
564 -522 -152
538 -531 -154
531 -538 -154
607 -554 -156
554 -607 -156
468 -519 -158
519 -468 -158
515 -496 -160
496 -515 -160
530 -521 -162
521 -530 -162
489 -609 -164
609 -489 -164
487 -494 -166
494 -487 -166
508 -557 -168
557 -508 -168
475 -592 -170
592 -475 -170
525 -577 -172
577 -525 -172
458 -501 -174
501 -458 -174
555 -493 -176
493 -555 -176
480 -584 -178
584 -480 -178
576 -594 -180
594 -576 -180
601 -580 -182
580 -601 -182
583 -474 -184
474 -583 -184
604 -561 -186
561 -604 -186
495 -596 -188
596 -495 -188
487 -471 -190
471 -487 -190
495 -492 -192
492 -495 -192
469 -571 -194
571 -469 -194
529 -496 -196
496 -529 -196
510 -464 -198
464 -510 -198
488 -540 -200
540 -488 -200
602 -522 -202
522 -602 -202
510 -464 -204
464 -510 -204
457 -504 -206
504 -457 -206
603 -517 -208
517 -603 -208
555 -479 -210
479 -555 -210
545 -570 -212
570 -545 -212
519 -547 -214
547 -519 -214
450 -505 -216
505 -450 -216
539 -519 -218
519 -539 -218
485 -477 -220
477 -485 -220
469 -568 -222
568 -469 -222
528 -569 -224
569 -528 -224
519 -460 -226
460 -519 -226
516 -507 -228
507 -516 -228
510 -464 -230
464 -510 -230
540 -543 -232
543 -540 -232
549 -454 -234
454 -549 -234
542 -467 -236
467 -542 -236
484 -598 -238
598 -484 -238
491 -489 -240
489 -491 -240
568 -575 -242
575 -568 -242
602 -504 -244
504 -602 -244
562 -530 -246
530 -562 -246
582 -489 -248
489 -582 -248
518 -603 -250
603 -518 -250
522 -543 -252
543 -522 -252
483 -481 -254
481 -483 -254
545 -533 -256
533 -545 -256
527 -563 -258
563 -527 -258
551 -487 -260
487 -551 -260
548 -533 -262
533 -548 -262
474 -536 -264
536 -474 -264
548 -535 -266
535 -548 -266
512 -507 -268
507 -512 -268
475 -592 -270
592 -475 -270
551 -479 -272
479 -551 -272
510 -540 -274
540 -510 -274
545 -548 -276
548 -545 -276
519 -459 -278
459 -519 -278
567 -454 -280
454 -567 -280
584 -601 -282
601 -584 -282
607 -455 -284
455 -607 -284
535 -570 -286
570 -535 -286
559 -518 -288
518 -559 -288
579 -484 -290
484 -579 -290
456 -572 -292
572 -456 -292
510 -464 -294
464 -510 -294
607 -557 -296
557 -607 -296
473 -585 -298
585 -473 -298
523 -577 -300
577 -523 -300
555 -509 -302
509 -555 -302
592 -558 -304
558 -592 -304
495 -579 -306
579 -495 -306
544 -533 -308
533 -544 -308
520 -538 -310
538 -520 -310
555 -607 -312
607 -555 -312
607 -460 -314
460 -607 -314
527 -609 -316
609 -527 -316
597 -517 -318
517 -597 -318
538 -472 -320
472 -538 -320
570 -544 -322
544 -570 -322
461 -518 -324
518 -461 -324
556 -603 -326
603 -556 -326
566 -581 -328
581 -566 -328
524 -607 -330
607 -524 -330
542 -595 -332
595 -542 -332
565 -531 -334
531 -565 -334
469 -465 -336
465 -469 -336
518 -514 -338
514 -518 -338
583 -564 -340
564 -583 -340
461 -503 -342
503 -461 -342
452 -534 -344
534 -452 -344
470 -526 -346
526 -470 -346
605 -606 -348
606 -605 -348
493 -513 -350
513 -493 -350
530 -524 -352
524 -530 -352
569 -611 -354
611 -569 -354
565 -513 -356
513 -565 -356
463 -537 -358
537 -463 -358
450 -587 -360
587 -450 -360
580 -574 -362
574 -580 -362
456 -519 -364
519 -456 -364
555 -479 -366
479 -555 -366
499 -583 -368
583 -499 -368
508 -607 -370
607 -508 -370
585 -494 -372
494 -585 -372
519 -560 -374
560 -519 -374
461 -514 -376
514 -461 -376
589 -534 -378
534 -589 -378
532 -561 -380
561 -532 -380
547 -594 -382
594 -547 -382
495 -505 -384
505 -495 -384
591 -457 -386
457 -591 -386
600 -546 -388
546 -600 -388
604 -512 -390
512 -604 -390
519 -525 -392
525 -519 -392
519 -593 -394
593 -519 -394
533 -494 -396
494 -533 -396
507 -506 -398
506 -507 -398
593 -609 -400
609 -593 -400
455 -577 -402
577 -455 -402
516 -506 -404
506 -516 -404
590 -579 -406
579 -590 -406
606 -607 -408
607 -606 -408
498 -537 -410
537 -498 -410
528 -573 -412
573 -528 -412
510 -574 -414
574 -510 -414
554 -471 -416
471 -554 -416
589 -504 -418
504 -589 -418
502 -596 -420
596 -502 -420
584 -601 -422
601 -584 -422
459 -595 -424
595 -459 -424
492 -517 -426
517 -492 -426
491 -470 -428
470 -491 -428
455 -525 -430
525 -455 -430
607 -554 -432
554 -607 -432
505 -543 -434
543 -505 -434
562 -458 -436
458 -562 -436
558 -480 -438
480 -558 -438
480 -497 -440
497 -480 -440
555 -460 -442
460 -555 -442
566 -599 -444
599 -566 -444
520 -467 -446
467 -520 -446
559 -611 -448
611 -559 -448